165	32	4	65	
10	10	10	10

0	0	0	0	0	0	15	1	2	3	5	8	12	22	23	24	25	26	27	28	29	30
1	1	1	0	1	1	4	21	19	18	4
2	3	2	1	0	5	2	20	7
3	5	5	0	6	2	2	11	10
4	2	3	0	6	4	1	6
5	1	4	5	0	9	2	17	10
6	0	2	4	1	1	1	9
7	0	2	2	2	10	2	15	14
8	1	4	0	4	4	2	15	14
9	0	9	6	4	7	1	10
10	2	0	3	5	2	1	13
11	0	3	7	4	10	1	16
12	7	6	1	0	4	1	13
13	4	0	8	7	2	1	31
14	0	5	3	3	4	1	31
15	4	5	0	4	8	1	31
16	3	0	8	5	5	1	31
17	0	5	4	3	7	1	31
18	5	4	7	0	3	1	31
19	4	0	2	6	9	1	31
20	5	3	1	0	8	1	31
21	7	2	4	0	4	1	31
22	4	4	4	0	6	1	31
23	3	4	0	3	7	1	31
24	9	3	3	0	5	1	31
25	6	6	0	4	9	1	31
26	0	3	2	5	5	1	31
27	0	6	6	8	3	1	31
28	0	7	2	2	3	1	31
29	4	3	0	2	10	1	31
30	0	3	5	3	8	1	31
31	0	0	0	0	0	0
